Version identifier: 12.10.0.0 | 2019-11-26 | 843d4de
CPXPARAM_WorkMem                                 16384
CPXPARAM_MIP_Limits_TreeMemory                   24576
Tried aggregator 2 times.
MIP Presolve eliminated 12 rows and 0 columns.
MIP Presolve added 24 rows and 0 columns.
Aggregator did 30 substitutions.
Reduced MIP has 54 rows, 50 columns, and 216 nonzeros.
Reduced MIP has 50 binaries, 0 generals, 0 SOSs, and 0 indicators.
Presolve time = 0,00 sec. (0,41 ticks)
Found incumbent of value 135,000000 after 0,00 sec. (0,47 ticks)
Probing time = 0,00 sec. (0,16 ticks)
Tried aggregator 1 time.
Detecting symmetries...
Reduced MIP has 54 rows, 50 columns, and 216 nonzeros.
Reduced MIP has 50 binaries, 0 generals, 0 SOSs, and 0 indicators.
Presolve time = 0,00 sec. (0,17 ticks)
Probing time = 0,00 sec. (0,16 ticks)
Clique table members: 208.
MIP emphasis: balance optimality and feasibility.
MIP search method: dynamic search.
Parallel mode: deterministic, using up to 16 threads.
Root relaxation solution time = 0,00 sec. (0,10 ticks)

        Nodes                                         Cuts/
   Node  Left     Objective  IInf  Best Integer    Best Bound    ItCnt     Gap

*     0+    0                          135,0000        0,0000           100,00%
*     0+    0                           98,0000        0,0000           100,00%
*     0+    0                           85,0000        0,0000           100,00%
      0     0       72,0000    35       85,0000       72,0000       19   15,29%
      0     0       77,0000    35       85,0000       Cuts: 6       44    9,41%
      0     0       82,0522    35       85,0000      Cuts: 10       64    3,47%
      0     0        cutoff             85,0000       85,0000       64    0,00%
Elapsed time = 0,01 sec. (1,90 ticks, tree = 0,01 MB, solutions = 3)

Cover cuts applied:  2
Gomory fractional cuts applied:  4

Root node processing (before b&c):
  Real time             =    0,01 sec. (1,90 ticks)
Parallel b&c, 16 threads:
  Real time             =    0,00 sec. (0,00 ticks)
  Sync time (average)   =    0,00 sec.
  Wait time (average)   =    0,00 sec.
                          ------------
Total (root+branch&cut) =    0,01 sec. (1,90 ticks)
